NAME          DCAP_3_4_2_200_SS111
ROWS
 N  OBJ
 L  CON1
 L  CON2
 L  CON3
 L  CON4
 L  CON5
 L  CON6
 L  CON7
 L  CON8
 L  CON9
 L  CON10
 L  CON11
 L  CON12
 E  CON13
 E  CON14
 E  CON15
 E  CON16
 E  CON17
 E  CON18
 E  CON19
 E  CON20
COLUMNS
    x[1,1]    OBJ       6.180167      CON1      1.000000    
    x[1,1]    CON7      -1.000000     CON8      -1.000000   
    x[1,2]    OBJ       5.039546      CON2      1.000000    
    x[1,2]    CON8      -1.000000   
    x[2,1]    OBJ       6.732585      CON3      1.000000    
    x[2,1]    CON9      -1.000000     CON10     -1.000000   
    x[2,2]    OBJ       7.443064      CON4      1.000000    
    x[2,2]    CON10     -1.000000   
    x[3,1]    OBJ       6.563535      CON5      1.000000    
    x[3,1]    CON11     -1.000000     CON12     -1.000000   
    x[3,2]    OBJ       6.054841      CON6      1.000000    
    x[3,2]    CON12     -1.000000   
    MARKER    'MARKER'                'INTORG'
    u[1,1]    OBJ       48.076654     CON1      -1.000000   
    u[1,2]    OBJ       49.466655     CON2      -1.000000   
    u[2,1]    OBJ       49.996186     CON3      -1.000000   
    u[2,2]    OBJ       32.230043     CON4      -1.000000   
    u[3,1]    OBJ       20.066487     CON5      -1.000000   
    u[3,2]    OBJ       27.484319     CON6      -1.000000   
    y[1,1,1]  OBJ       6.470844      CON7      1.388771    
    y[1,1,1]  CON13     1.000000    
    y[1,1,2]  OBJ       9.784162      CON8      0.504369    
    y[1,1,2]  CON14     1.000000    
    y[1,2,1]  OBJ       7.147157      CON7      0.672226    
    y[1,2,1]  CON15     1.000000    
    y[1,2,2]  OBJ       8.911021      CON8      0.586061    
    y[1,2,2]  CON16     1.000000    
    y[1,3,1]  OBJ       5.849473      CON7      1.386034    
    y[1,3,1]  CON17     1.000000    
    y[1,3,2]  OBJ       7.044723      CON8      0.965104    
    y[1,3,2]  CON18     1.000000    
    y[1,4,1]  OBJ       7.727830      CON7      1.140709    
    y[1,4,1]  CON19     1.000000    
    y[1,4,2]  OBJ       6.913402      CON8      0.877670    
    y[1,4,2]  CON20     1.000000    
    y[2,1,1]  OBJ       9.322317      CON9      1.388771    
    y[2,1,1]  CON13     1.000000    
    y[2,1,2]  OBJ       6.506852      CON10     0.504369    
    y[2,1,2]  CON14     1.000000    
    y[2,2,1]  OBJ       7.238471      CON9      0.672226    
    y[2,2,1]  CON15     1.000000    
    y[2,2,2]  OBJ       5.083424      CON10     0.586061    
    y[2,2,2]  CON16     1.000000    
    y[2,3,1]  OBJ       6.434321      CON9      1.386034    
    y[2,3,1]  CON17     1.000000    
    y[2,3,2]  OBJ       8.315262      CON10     0.965104    
    y[2,3,2]  CON18     1.000000    
    y[2,4,1]  OBJ       9.693972      CON9      1.140709    
    y[2,4,1]  CON19     1.000000    
    y[2,4,2]  OBJ       6.124395      CON10     0.877670    
    y[2,4,2]  CON20     1.000000    
    y[3,1,1]  OBJ       9.545511      CON11     1.388771    
    y[3,1,1]  CON13     1.000000    
    y[3,1,2]  OBJ       6.682259      CON12     0.504369    
    y[3,1,2]  CON14     1.000000    
    y[3,2,1]  OBJ       9.368696      CON11     0.672226    
    y[3,2,1]  CON15     1.000000    
    y[3,2,2]  OBJ       5.732267      CON12     0.586061    
    y[3,2,2]  CON16     1.000000    
    y[3,3,1]  OBJ       9.128318      CON11     1.386034    
    y[3,3,1]  CON17     1.000000    
    y[3,3,2]  OBJ       8.708222      CON12     0.965104    
    y[3,3,2]  CON18     1.000000    
    y[3,4,1]  OBJ       7.741844      CON11     1.140709    
    y[3,4,1]  CON19     1.000000    
    y[3,4,2]  OBJ       8.937871      CON12     0.877670    
    y[3,4,2]  CON20     1.000000    
    z[1,1]    OBJ       694.098800    CON13     1.000000    
    z[1,2]    OBJ       718.554673    CON14     1.000000    
    z[2,1]    OBJ       845.666662    CON15     1.000000    
    z[2,2]    OBJ       967.802022    CON16     1.000000    
    z[3,1]    OBJ       671.879654    CON17     1.000000    
    z[3,2]    OBJ       830.057839    CON18     1.000000    
    z[4,1]    OBJ       691.305087    CON19     1.000000    
    z[4,2]    OBJ       804.686236    CON20     1.000000    
    MARKER    'MARKER'                 'INTEND'
RHS
    RHS       CON1      -0.000000     CON2      -0.000000   
    RHS       CON3      -0.000000     CON4      -0.000000   
    RHS       CON5      -0.000000     CON6      -0.000000   
    RHS       CON7      -0.000000     CON8      -0.000000   
    RHS       CON9      -0.000000     CON10     -0.000000   
    RHS       CON11     -0.000000     CON12     -0.000000   
    RHS       CON13     1.000000      CON14     1.000000    
    RHS       CON15     1.000000      CON16     1.000000    
    RHS       CON17     1.000000      CON18     1.000000    
    RHS       CON19     1.000000      CON20     1.000000    
BOUNDS
 BV BOUND     u[1,1]  
 BV BOUND     u[1,2]  
 BV BOUND     u[2,1]  
 BV BOUND     u[2,2]  
 BV BOUND     u[3,1]  
 BV BOUND     u[3,2]  
 BV BOUND     y[1,1,1]
 BV BOUND     y[1,1,2]
 BV BOUND     y[1,2,1]
 BV BOUND     y[1,2,2]
 BV BOUND     y[1,3,1]
 BV BOUND     y[1,3,2]
 BV BOUND     y[1,4,1]
 BV BOUND     y[1,4,2]
 BV BOUND     y[2,1,1]
 BV BOUND     y[2,1,2]
 BV BOUND     y[2,2,1]
 BV BOUND     y[2,2,2]
 BV BOUND     y[2,3,1]
 BV BOUND     y[2,3,2]
 BV BOUND     y[2,4,1]
 BV BOUND     y[2,4,2]
 BV BOUND     y[3,1,1]
 BV BOUND     y[3,1,2]
 BV BOUND     y[3,2,1]
 BV BOUND     y[3,2,2]
 BV BOUND     y[3,3,1]
 BV BOUND     y[3,3,2]
 BV BOUND     y[3,4,1]
 BV BOUND     y[3,4,2]
 BV BOUND     z[1,1]  
 BV BOUND     z[1,2]  
 BV BOUND     z[2,1]  
 BV BOUND     z[2,2]  
 BV BOUND     z[3,1]  
 BV BOUND     z[3,2]  
 BV BOUND     z[4,1]  
 BV BOUND     z[4,2]  
ENDATA
